Problem:    
Rows:       256
Columns:    89 (72 integer, 72 binary)
Non-zeros:  960
Status:     INTEGER OPTIMAL
Objective:  value = 10.067155 (MINimum)

   No.   Row name        Activity     Lower bound   Upper bound
------ ------------    ------------- ------------- -------------
     1 r.5                   1010.07             0               
     2 r.6                  -998.499       -998.95               
     3 r.7                   10.0672             0               
     4 r.8                     4.457      -994.423               
     5 r.9                   10.0672             0               
     6 r.10                 -998.283      -998.733               
     7 r.11                  1010.07             0               
     8 r.12                 -991.759       -993.41               
     9 r.13                  1010.07             0               
    10 r.14                 -995.543      -998.645               
    11 r.15                  10.0672             0               
    12 r.16                  8.49395       -990.77               
    13 r.17                  1010.07             0               
    14 r.18                 -996.898      -999.145               
    15 r.19                  10.0672             0               
    16 r.20                 -993.938      -994.388               
    17 r.21                  1010.07             0               
    18 r.22                 -997.752      -999.253               
    19 r.23                  10.0672             0               
    20 r.24                    4.457      -995.063               
    21 r.25                  1010.07             0               
    22 r.26                  -999.79       -999.79               
    23 r.27                  10.0672             0               
    24 r.28                  -995.81       -995.81               
    25 r.29                  1010.07             0               
    26 r.30                 -991.506      -995.963               
    27 r.31                  10.0672             0               
    28 r.32                  10.0672      -988.651               
    29 r.33                  1010.07             0               
    30 r.34                 -989.933      -998.427               
    31 r.35                  10.0672             0               
    32 r.36                  10.0672      -995.043               
    33 r.37                        1             1             = 
    34 r.38                        1             1             = 
    35 r.39                        1             1             = 
    36 r.40                        1             1             = 
    37 r.41                        1             1             = 
    38 r.42                        1             1             = 
    39 r.43                        1             1             = 
    40 r.44                        1             1             = 
    41 r.45                     1001             2               
    42 r.46                    -1001         -1001               
    43 r.47                  1000.22      -998.733               
    44 r.48                     1001             2               
    45 r.49                    -1001         -1001               
    46 r.50                  2003.78       -993.41               
    47 r.51                        2             2               
    48 r.52                       -2         -1001               
    49 r.53                 -997.044      -998.645               
    50 r.54                     1000             2               
    51 r.55                    -1000         -1001               
    52 r.56                  2004.04       -990.77               
    53 r.57                        2             2               
    54 r.58                       -2         -1001               
    55 r.59                 -998.399      -999.145               
    56 r.60                     1000             2               
    57 r.61                    -1000         -1001               
    58 r.62                  1001.61      -994.388               
    59 r.63                        2             2               
    60 r.64                       -2         -1001               
    61 r.65                 -999.253      -999.253               
    62 r.66                     1000             2               
    63 r.67                    -1000         -1001               
    64 r.68                     2000      -995.063               
    65 r.69                  -998.95       -998.95               
    66 r.70                  4.00651      -994.423               
    67 r.71                 -2.43682       -998.95               
    68 r.72                  1000.52      -994.423               
    69 r.73                 -993.007      -995.963               
    70 r.74                  8.56625      -988.651               
    71 r.75                 -995.963      -995.963               
    72 r.76                  5.61016      -988.651               
    73 r.77                        2             2               
    74 r.78                       -2         -1001               
    75 r.79                 -991.434      -998.427               
    76 r.80                     1000             2               
    77 r.81                    -1000         -1001               
    78 r.82                  2005.61      -995.043               
    79 r.83                     1001             2               
    80 r.84                    -1001         -1001               
    81 r.85                  3000.02       1.05042               
    82 r.86                     1001             2               
    83 r.87                    -1001         -1001               
    84 r.88                  1995.96       5.57725               
    85 r.89                     1001             2               
    86 r.90                    -1001         -1001               
    87 r.91                  3002.98      -998.645               
    88 r.92                     1001             2               
    89 r.93                    -1001         -1001               
    90 r.94                     2000       -990.77               
    91 r.95                     1001             2               
    92 r.96                    -1001         -1001               
    93 r.97                  3001.63      -999.145               
    94 r.98                     1001             2               
    95 r.99                    -1001         -1001               
    96 r.100                 997.568      -994.388               
    97 r.101                    1001             2               
    98 r.102                   -1001         -1001               
    99 r.103                 3000.77      -999.253               
   100 r.104                    1001             2               
   101 r.105                   -1001         -1001               
   102 r.106                 1995.96      -995.063               
   103 r.107                -998.733      -998.733               
   104 r.108                -992.209       -993.41               
   105 r.109                -2.22027      -998.733               
   106 r.110                 4.30375       -993.41               
   107 r.111                    1001             2               
   108 r.112                   -1001         -1001               
   109 r.113                 3007.02      -995.963               
   110 r.114                    1001             2               
   111 r.115                   -1001         -1001               
   112 r.116                 2001.57      -988.651               
   113 r.117                 8.59037      -998.427               
   114 r.118                 1008.59      -995.043               
   115 r.119                -998.427      -998.427               
   116 r.120                  1.5732      -995.043               
   117 r.121                       2             2               
   118 r.122                      -2         -1001               
   119 r.123                 997.044       1.05042               
   120 r.124                    1000             2               
   121 r.125                   -1000         -1001               
   122 r.126                 1995.96       5.57725               
   123 r.127                    1001             2               
   124 r.128                   -1001         -1001               
   125 r.129                  997.26       1.26698               
   126 r.130                    1001             2               
   127 r.131                   -1001         -1001               
   128 r.132                 1999.75       6.58988               
   129 r.133                -998.645      -998.645               
   130 r.134                 5.39162       -990.77               
   131 r.135                -1.60507      -998.645               
   132 r.136                 1002.43       -990.77               
   133 r.137                       2             2               
   134 r.138                      -2         -1001               
   135 r.139                 -2.2094      -999.253               
   136 r.140                    1000             2               
   137 r.141                   -1000         -1001               
   138 r.142                 1995.96      -995.063               
   139 r.143                -995.993      -998.645               
   140 r.144                 8.04347       -990.77               
   141 r.145                0.519271      -998.645               
   142 r.146                 1004.56       -990.77               
   143 r.147                       2             2               
   144 r.148                      -2         -1001               
   145 r.149                -995.963      -995.963               
   146 r.150                    1000             2               
   147 r.151                   -1000         -1001               
   148 r.152                 2001.57      -988.651               
   149 r.153                 -994.39      -998.427               
   150 r.154                 5.61016      -995.043               
   151 r.155                -998.427      -998.427               
   152 r.156                  1.5732      -995.043               
   153 r.157                       2             2               
   154 r.158                      -2         -1001               
   155 r.159                 998.399       1.05042               
   156 r.160                    1000             2               
   157 r.161                   -1000         -1001               
   158 r.162                 2998.39       5.57725               
   159 r.163                    1001             2               
   160 r.164                   -1001         -1001               
   161 r.165                 998.615       1.26698               
   162 r.166                    1001             2               
   163 r.167                   -1001         -1001               
   164 r.168                 3002.18       6.58988               
   165 r.169                       2             2               
   166 r.170                      -2         -1001               
   167 r.171               -0.854735      -999.253               
   168 r.172                    1000             2               
   169 r.173                   -1000         -1001               
   170 r.174                 2998.39      -995.063               
   171 r.175                -997.348      -999.145               
   172 r.176                -994.388      -994.388               
   173 r.177               -0.835399      -999.145               
   174 r.178                 2.12434      -994.388               
   175 r.179                       2             2               
   176 r.180                      -2         -1001               
   177 r.181                -994.608      -995.963               
   178 r.182                    1000             2               
   179 r.183                   -1000         -1001               
   180 r.184                 3004.01      -988.651               
   181 r.185                -993.035      -998.427               
   182 r.186                 6.96483      -995.043               
   183 r.187                 4.00508      -998.427               
   184 r.188                 1004.01      -995.043               
   185 r.189                       2             2               
   186 r.190                      -2         -1001               
   187 r.191                 999.253       1.05042               
   188 r.192                    1000             2               
   189 r.193                   -1000         -1001               
   190 r.194                    2000       5.57725               
   191 r.195                    1001             2               
   192 r.196                   -1001         -1001               
   193 r.197                  999.47       1.26698               
   194 r.198                    1001             2               
   195 r.199                   -1001         -1001               
   196 r.200                 2003.78       6.58988               
   197 r.201                       2             2               
   198 r.202                      -2         -1001               
   199 r.203                  2.2094       1.35467               
   200 r.204                    1000             2               
   201 r.205                   -1000         -1001               
   202 r.206                 2004.04       9.23035               
   203 r.207                       2             2               
   204 r.208                      -2         -1001               
   205 r.209                0.854733      0.854733               
   206 r.210                    1000             2               
   207 r.211                   -1000         -1001               
   208 r.212                 1001.61       5.61159               
   209 r.213                -998.203      -999.253               
   210 r.214                 4.00651      -995.063               
   211 r.215                -1.69013      -999.253               
   212 r.216                 1000.52      -995.063               
   213 r.217                -993.754      -995.963               
   214 r.218                 7.81956      -988.651               
   215 r.219                -995.963      -995.963               
   216 r.220                 5.61016      -988.651               
   217 r.221                 -992.18      -998.427               
   218 r.222                 7.81956      -995.043               
   219 r.223                 -994.39      -998.427               
   220 r.224                 5.61016      -995.043               
   221 r.225                    1001             2               
   222 r.226                   -1001         -1001               
   223 r.227                 993.224       1.26698               
   224 r.228                    1001             2               
   225 r.229                   -1001         -1001               
   226 r.230                 1998.17       6.58988               
   227 r.231                       2             2               
   228 r.232                      -2         -1001               
   229 r.233                 995.963       1.35467               
   230 r.234                    1000             2               
   231 r.235                   -1000         -1001               
   232 r.236                 1998.43       9.23035               
   233 r.237                       2             2               
   234 r.238                      -2         -1001               
   235 r.239                 994.608      0.854733               
   236 r.240                    1000             2               
   237 r.241                   -1000         -1001               
   238 r.242                 995.995       5.61159               
   239 r.243                       2             2               
   240 r.244                      -2         -1001               
   241 r.245                -998.427      -998.427               
   242 r.246                    1000             2               
   243 r.247                   -1000         -1001               
   244 r.248                    2000      -995.043               
   245 r.249                       2             2               
   246 r.250                      -2         -1001               
   247 r.251                 991.434       1.05042               
   248 r.252                    1000             2               
   249 r.253                   -1000         -1001               
   250 r.254                 1994.39       5.57725               
   251 r.255                       2             2               
   252 r.256                      -2         -1001               
   253 r.257                 998.427       4.03696               
   254 r.258                    1000             2               
   255 r.259                   -1000         -1001               
   256 r.260                    2000       11.3486               

   No. Column name       Activity     Lower bound   Upper bound
------ ------------    ------------- ------------- -------------
     1 tt                    10.0672             0               
     2 s_1_1        *              1             0             1 
     3 t_1_1                 8.56625             0               
     4 s_1_7        *              1             0             1 
     5 s_2_1        *              0             0             1 
     6 t_2_1                 5.61016             0               
     7 s_2_7        *              0             0             1 
     8 s_1_2        *              0             0             1 
     9 t_1_2                 1008.59             0               
    10 s_1_8        *              1             0             1 
    11 s_2_2        *              1             0             1 
    12 t_2_2                  1.5732             0               
    13 s_2_8        *              0             0             1 
    14 s_1_3        *              1             0             1 
    15 t_1_3                 5.61016             0               
    16 s_2_3        *              0             0             1 
    17 t_2_3                  1.5732             0               
    18 s_1_4        *              1             0             1 
    19 t_1_4                 6.96483             0               
    20 s_2_4        *              0             0             1 
    21 t_2_4                 1004.01             0               
    22 s_1_5        *              1             0             1 
    23 t_1_5                 7.81956             0               
    24 s_2_5        *              0             0             1 
    25 t_2_5                 5.61016             0               
    26 s_1_6        *              1             0             1 
    27 t_1_6                 9.61667             0               
    28 s_2_6        *              0             0             1 
    29 t_2_6                 1006.13             0               
    30 t_1_7                  1.5732             0               
    31 t_2_7                       0             0               
    32 t_1_8                       0             0               
    33 t_2_8                       0             0               
    34 r_1_1_2      *              1             0             1 
    35 u_1_1_2      *              0             0             1 
    36 r_2_1_2      *              1             0             1 
    37 u_2_1_2      *              0             0             1 
    38 r_1_1_3      *              0             0             1 
    39 u_1_1_3      *              1             0             1 
    40 r_2_1_3      *              1             0             1 
    41 u_2_1_3      *              0             0             1 
    42 r_1_1_4      *              0             0             1 
    43 u_1_1_4      *              1             0             1 
    44 r_2_1_4      *              1             0             1 
    45 u_2_1_4      *              0             0             1 
    46 r_1_1_5      *              0             0             1 
    47 u_1_1_5      *              1             0             1 
    48 r_2_1_5      *              1             0             1 
    49 u_2_1_5      *              0             0             1 
    50 r_1_1_8      *              0             0             1 
    51 u_1_1_8      *              1             0             1 
    52 r_2_1_8      *              1             0             1 
    53 u_2_1_8      *              0             0             1 
    54 r_1_2_3      *              1             0             1 
    55 u_1_2_3      *              0             0             1 
    56 r_2_2_3      *              1             0             1 
    57 u_2_2_3      *              0             0             1 
    58 r_1_2_4      *              1             0             1 
    59 u_1_2_4      *              0             0             1 
    60 r_2_2_4      *              1             0             1 
    61 u_2_2_4      *              0             0             1 
    62 r_1_2_5      *              1             0             1 
    63 u_1_2_5      *              0             0             1 
    64 r_2_2_5      *              1             0             1 
    65 u_2_2_5      *              0             0             1 
    66 r_1_2_7      *              1             0             1 
    67 u_1_2_7      *              0             0             1 
    68 r_2_2_7      *              1             0             1 
    69 u_2_2_7      *              0             0             1 
    70 r_1_3_5      *              0             0             1 
    71 u_1_3_5      *              0             0             1 
    72 r_2_3_5      *              1             0             1 
    73 u_2_3_5      *              0             0             1 
    74 r_1_3_7      *              0             0             1 
    75 u_1_3_7      *              1             0             1 
    76 r_2_3_7      *              1             0             1 
    77 u_2_3_7      *              0             0             1 
    78 r_1_4_5      *              0             0             1 
    79 u_1_4_5      *              0             0             1 
    80 r_2_4_5      *              1             0             1 
    81 u_2_4_5      *              0             0             1 
    82 r_1_4_7      *              0             0             1 
    83 u_1_4_7      *              1             0             1 
    84 r_2_4_7      *              1             0             1 
    85 u_2_4_7      *              0             0             1 
    86 r_1_7_8      *              0             0             1 
    87 u_1_7_8      *              1             0             1 
    88 r_2_7_8      *              1             0             1 
    89 u_2_7_8      *              0             0             1 

Integer feasibility conditions:

KKT.PE: max.abs.err = 4.55e-13 on row 81
        max.rel.err = 7.57e-17 on row 164
        High quality

KKT.PB: max.abs.err = 0.00e+00 on row 0
        max.rel.err = 0.00e+00 on row 0
        High quality

End of output
